Maximize
	- 2 x2 - 4 x3 - 1 x4 
Maximize
	+ 1 x2 - 3 x3 - 2 x4 
Maximize
	- 2 x1 + 3 x2 + 4 x3 - 2 x4 
Maximize
	- 3 x2 + 3 x4 
Subject To
	+ 6 x2 + 2 x3 + 2 x4 <= 2
Bounds
	0 <= x1 <= 4
	0 <= x2 <= 4
	0 <= x3 <= 4
	0 <= x4 <= 4
Integers
	x1 x2 x3 x4 
End